300
400 400
1 280 163
2 280 732
3 279 264
4 278 124
5 277 511
6 276 513
7 275 185
8 274 132
9 272 149
10 271 547
11 270 358
12 270 284
13 269 930
14 269 930
15 267 168
16 267 562
17 266 99
18 265 85
19 265 452
20 264 523
21 264 431
22 264 175
23 264 168
24 263 961
25 263 346
26 262 710
27 262 61
28 261 622
29 260 929
30 260 715
31 259 889
32 259 460
33 259 77
34 258 105
35 258 185
36 257 842
37 257 876
38 256 859
39 256 21
40 255 81
41 254 880
42 252 296
43 251 537
44 251 250
45 249 244
46 249 564
47 249 25
48 247 621
49 246 869
50 244 262
51 244 492
52 244 347
53 243 788
54 241 971
55 241 568
56 241 129
57 240 589
58 240 677
59 240 660
60 239 576
61 238 191
62 236 100
63 235 819
64 235 583
65 234 61
66 233 393
67 232 588
68 232 18
69 232 990
70 231 768
71 231 465
72 229 206
73 229 92
74 229 496
75 228 702
76 227 371
77 226 438
78 226 40
79 226 757
80 225 144
81 225 461
82 223 5
83 223 392
84 222 825
85 222 191
86 221 994
87 220 534
88 220 844
89 220 609
90 219 358
91 218 596
92 218 505
93 218 643
94 217 259
95 216 65
96 215 136
97 213 388
98 212 6
99 210 172
100 210 471
101 209 637
102 209 206
103 208 568
104 207 712
105 206 40
106 205 275
107 205 50
108 205 819
109 202 649
110 202 957
111 199 409
112 199 503
113 197 405
114 196 895
115 196 768
116 196 828
117 195 98
118 195 360
119 192 821
120 192 476
121 191 972
122 190 677
123 190 342
124 189 613
125 189 804
126 189 863
127 186 293
128 185 111
129 185 628
130 183 632
131 183 774
132 182 383
133 181 431
134 180 766
135 179 141
136 178 928
137 177 754
138 177 676
139 176 862
140 175 400
141 175 583
142 174 555
143 174 253
144 173 691
145 172 479
146 172 3
147 171 179
148 168 31
149 166 924
150 166 387
151 163 745
152 162 407
153 162 816
154 162 728
155 160 621
156 159 16
157 159 324
158 157 508
159 157 590
160 156 969
161 156 416
162 154 397
163 154 955
164 153 673
165 153 206
166 152 431
167 152 728
168 152 228
169 152 969
170 152 306
171 152 787
172 151 517
173 150 272
174 149 967
175 149 185
176 147 193
177 146 11
178 145 804
179 143 850
180 142 918
181 142 364
182 140 126
183 139 285
184 139 645
185 139 634
186 137 745
187 137 469
188 135 286
189 134 65
190 133 338
191 132 143
192 132 169
193 132 268
194 130 693
195 130 994
196 129 489
197 129 227
198 129 944
199 127 407
200 124 821
201 124 467
202 124 182
203 124 709
204 124 296
205 123 893
206 122 592
207 122 515
208 121 2
209 121 840
210 121 158
211 120 610
212 120 642
213 119 512
214 118 682
215 118 630
216 118 787
217 117 923
218 117 361
219 117 616
220 117 353
221 116 17
222 114 990
223 113 705
224 110 408
225 110 695
226 109 479
227 109 408
228 108 881
229 106 872
230 106 416
231 106 977
232 105 831
233 105 615
234 103 896
235 103 531
236 102 810
237 101 130
238 99 167
239 99 531
240 98 222
241 97 517
242 97 913
243 96 414
244 95 953
245 95 536
246 94 114
247 94 266
248 93 802
249 91 818
250 89 719
251 89 402
252 88 957
253 87 191
254 86 575
255 85 632
256 84 550
257 84 200
258 83 590
259 79 538
260 79 630
261 78 728
262 77 715
263 77 259
264 76 962
265 76 29
266 76 642
267 76 856
268 74 696
269 74 991
270 73 509
271 73 277
272 73 388
273 72 128
274 71 683
275 70 24
276 70 125
277 69 136
278 68 426
279 66 178
280 66 568
281 66 911
282 64 37
283 63 752
284 62 269
285 57 830
286 56 98
287 55 38
288 55 455
289 49 795
290 48 819
291 47 819
292 47 890
293 46 765
294 46 685
295 45 132
296 45 354
297 45 721
298 44 251
299 44 304
300 42 361
